(assert (forall ((pkt_0_8_a_0  Int  )(pkt_1_9_b_0  Int  )(pkt_2_a_c_0  Int  )(pkt_3_b_d_0  Int  )(pkt_4_c_e_0  Int  )(state_group_0_state_0_d_f_0  Int  )(state_group_0_state_1_e_10_0  Int  )) (let ((_n0 state_group_0_state_1_e_10_0 ))
(let ((_n1 pkt_4_c_e_0 ))
(let ((_n2 (=   _n1   _n0 ) ))
(let ((_n3 state_group_0_state_0_d_f_0 ))
(let ((_n4 pkt_3_b_d_0 ))
(let ((_n5 (<   _n4   _n3 ) ))
(let ((_n6 (not  _n5 ) ))
(let ((_n7 (and   _n6   _n2 ) ))
(let ((_n8 (or   _n5   _n7 ) ))
(let ((_n9 (ite  _n8   _n4   _n3  ) ))
(let ((_n10 false ))
(let ((_n11 (-  _n1 )))
(let ((_n12 (+   _n0   _n11 ) ))
(let ((_n13 (=   _n12   (ite  _n10  1 0) ) ))
(let ((_n14 (ite (=  _n12  0)  (ite  _n10  1 0)   _n4  ) ))
(let ((_n15 (-  _n14 )))
(let ((_n16 (ite (=  _n12  0)  (ite  _n10  1 0)   _n1  ) ))
(let ((_n17 (ite (=  _n12  0)  (ite  _n10  1 0)   _n3  ) ))
(let ((_n18 (+   _n17   _n16 ) ))
(let ((_n19 (+   _n18   _n15 ) ))
(let ((_n20 (<   (ite  _n10  1 0)   _n19 ) ))
(let ((_n21 (ite (=  _n12  0)  _n10   _n20  ) ))
(let ((_n22 (not  _n21 ) ))
(let ((_n23 (or   _n22   _n13 ) ))
(let ((_n24 (ite  _n23   (ite  _n10  1 0)   _n4  ) ))
(let ((_n25 (-  _n24 )))
(let ((_n26 (ite  _n23   (ite  _n10  1 0)   _n3  ) ))
(let ((_n27 (+   _n26   _n25 ) ))
(let ((_n28 (<   (ite  _n10  1 0)   _n27 ) ))
(let ((_n29 (ite  _n23   _n10   _n28  ) ))
(let ((_n30 (not  _n29 ) ))
(let ((_n31 (or   _n30   _n23 ) ))
(let ((_n32 (ite  _n31   (ite  _n10  1 0)   _n4  ) ))
(let ((_n33 (ite  _n31   _n3   (ite  _n10  1 0)  ) ))
(let ((_n34 (+   _n33   _n32 ) ))
(let ((_n35 (ite (=  (ite  _n29  1 0)  1)  _n34   _n3  ) ))
(let ((_n36 (ite (=  (ite  _n21  1 0)  1)  _n35   _n3  ) ))
(let ((_n37 (ite (=  _n12  0)  _n4   (ite  _n10  1 0)  ) ))
(let ((_n38 (ite (=  _n12  0)  _n37   (ite  _n10  1 0)  ) ))
(let ((_n39 (+   _n17   _n38 ) ))
(let ((_n40 (ite (=  (ite  _n13  1 0)  1)  _n39   (ite  _n10  1 0)  ) ))
(let ((_n41 (ite (=  (ite  _n13  1 0)  1)  _n40   _n36  ) ))
(let ((_n42 (=   _n41   _n9 ) ))
(let ((_n44 (ite  _n5   _n1   _n0  ) ))
(let ((_n45 (ite  _n31   (ite  _n10  1 0)   _n1  ) ))
(let ((_n46 (ite  _n31   _n0   (ite  _n10  1 0)  ) ))
(let ((_n47 (+   _n46   _n45 ) ))
(let ((_n48 (ite (=  (ite  _n29  1 0)  1)  _n47   _n0  ) ))
(let ((_n49 (ite (=  (ite  _n21  1 0)  1)  _n48   _n0  ) ))
(let ((_n50 (ite (=  (ite  _n13  1 0)  1)  _n0   (ite  _n10  1 0)  ) ))
(let ((_n51 (ite (=  (ite  _n13  1 0)  1)  _n50   _n49  ) ))
(let ((_n52 (=   _n51   _n44 ) ))
(let ((_n54 pkt_0_8_a_0 ))
(let ((_n55 (ite (=  _n54  0)  _n54   (ite  _n10  1 0)  ) ))
(let ((_n56 (ite (=  _n54  0)  _n55   _n54  ) ))
(let ((_n57 (=   _n56   _n54 ) ))
(let ((_n59 (<   _n54   (ite  _n10  1 0) ) ))
(let ((_n60 (ite  _n59   (ite  _n10  1 0)   _n54  ) ))
(let ((_n61 (=   _n54   _n60 ) ))
(let ((_n63 pkt_2_a_c_0 ))
(let ((_n64 (ite (=  _n63  0)  _n4   (ite  _n10  1 0)  ) ))
(let ((_n65 (ite (=  _n63  0)  _n64   _n4  ) ))
(let ((_n66 (=   _n65   _n4 ) ))
(let ((_n68 (ite (=  _n63  0)  _n1   (ite  _n10  1 0)  ) ))
(let ((_n69 (ite (=  _n63  0)  _n68   _n1  ) ))
(let ((_n70 (=   _n69   _n1 ) ))
(let ((_n72 pkt_1_9_b_0 ))
(implies  (and (and (>= state_group_0_state_1_e_10_0 0) (< state_group_0_state_1_e_10_0 1024 ))  (and (and (>= state_group_0_state_0_d_f_0 0) (< state_group_0_state_0_d_f_0 1024 ))  (and (and (>= pkt_4_c_e_0 0) (< pkt_4_c_e_0 1024 ))  (and (and (>= pkt_3_b_d_0 0) (< pkt_3_b_d_0 1024 ))  (and (and (>= pkt_2_a_c_0 0) (< pkt_2_a_c_0 1024 ))  (and (and (>= pkt_1_9_b_0 0) (< pkt_1_9_b_0 1024 ))  (and (>= pkt_0_8_a_0 0) (< pkt_0_8_a_0 1024 )) ) ) ) ) ) )   (and  _n42  _n52  _n57  _n61  _n66  _n70 )  ))))))))))))))))))))))))))))))))))))))))))))))))))))))))))))))))))))))
(check-sat)
(get-model)
(exit)